na1site   = 3
na2site   = 3
num_wann  = 18
temp      = 300
gamma     = 0.02
dt        = 0.1
nstep     = 10
nsnap     = 2000
naver     = 1
elecB     = 9
elecK     = 37
holeB     = 10
holeK     = 37
epsr      = 2.24
nshiftstep= 2
dtadQ     = 0.1000
Lephfile  = .False.
Num_occupied=9
L_test    = .False.
L_hotphonon= .False.
hot_mode = 1
hot_scal = 1.0
