Automatic generation
0
Gamma-Centered
7 7 1
0 0 0
