                   MoS2-WS2(0) 0.00000
  1.0000
      3.185905060962      0.000000000000      0.000000000000
     -1.592952530531      2.759074716892      0.000000000000
      0.000000000000      0.000000000000     25.000000000000
   Mo   S    W 
    1    4    1
C
     0.000000000     1.839383200     7.279296347
     1.592952578     0.919691600     5.719389904
     1.592952578     0.919691600     8.837786199
     0.000000000     1.839383200    11.877555418
     0.000000000     1.839383200    15.003627752
     1.592952578     0.919691600    13.439036160
