 Building Supercell From CONTCAR File
 1.000000
      7.403188178104      0.000000000000      0.000000000000
     -3.701594089052      6.411349031055      0.000000000000
      0.000000000000      0.000000000000     20.000000000000
   C 
   18
 Direct
    0.222222222184    0.111111111111    0.500000000000     C
    0.555555565451    0.111111111111    0.500000000000     C
    0.888888908719    0.111111111111    0.500000000000     C
    0.222222222184    0.444444454378    0.500000000000     C
    0.555555565451    0.444444454378    0.500000000000     C
    0.888888908719    0.444444454378    0.500000000000     C
    0.222222222184    0.777777797646    0.500000000000     C
    0.555555565451    0.777777797646    0.500000000000     C
    0.888888908719    0.777777797646    0.500000000000     C
    0.111111111111    0.222222222222    0.500000000000     C
    0.444444454379    0.222222222222    0.500000000000     C
    0.777777797646    0.222222222222    0.500000000000     C
    0.111111111111    0.555555565490    0.500000000000     C
    0.444444454379    0.555555565490    0.500000000000     C
    0.777777797646    0.555555565490    0.500000000000     C
    0.111111111111    0.888888908757    0.500000000000     C
    0.444444454379    0.888888908757    0.500000000000     C
    0.777777797646    0.888888908757    0.500000000000     C
